NAME 
ROWS
 N  OBJ
 G  R0      
 G  R1      
 G  R2      
 G  R3      
 G  R4      
 G  R5      
 G  R6      
 G  R7      
 G  R8      
 G  R9      
 G  R10     
 G  R11     
 G  R12     
 G  R13     
 G  R14     
 G  R15     
 G  R16     
 G  R17     
 G  R18     
 G  R19     
 G  R20     
 G  R21     
 G  R22     
 G  R23     
COLUMNS
    x0        OBJ       1
    x0        R0        1
    x0        R10       1
    x0        R11       1
    x0        R16       1
    x0        R17       1
    x0        R19       1
    x0        R20       1
    x0        R21       1
    x1        OBJ       1
    x1        R1        1
    x1        R9        1
    x1        R11       1
    x1        R15       1
    x1        R17       1
    x1        R18       1
    x1        R20       1
    x1        R22       1
    x2        OBJ       1
    x2        R2        1
    x2        R9        1
    x2        R10       1
    x2        R15       1
    x2        R16       1
    x2        R18       1
    x2        R19       1
    x2        R23       1
    x3        OBJ       1
    x3        R3        1
    x3        R7        1
    x3        R8        1
    x3        R13       1
    x3        R14       1
    x3        R18       1
    x3        R22       1
    x3        R23       1
    x4        OBJ       1
    x4        R4        1
    x4        R6        1
    x4        R8        1
    x4        R12       1
    x4        R14       1
    x4        R19       1
    x4        R21       1
    x4        R23       1
    x5        OBJ       1
    x5        R5        1
    x5        R6        1
    x5        R7        1
    x5        R12       1
    x5        R13       1
    x5        R20       1
    x5        R21       1
    x5        R22       1
    x6        OBJ       1
    x6        R4        1
    x6        R5        1
    x6        R6        1
    x6        R13       1
    x6        R14       1
    x6        R15       1
    x6        R22       1
    x6        R23       1
    x7        OBJ       1
    x7        R3        1
    x7        R5        1
    x7        R7        1
    x7        R12       1
    x7        R14       1
    x7        R16       1
    x7        R21       1
    x7        R23       1
    x8        OBJ       1
    x8        R3        1
    x8        R4        1
    x8        R8        1
    x8        R12       1
    x8        R13       1
    x8        R17       1
    x8        R21       1
    x8        R22       1
    x9        OBJ       1
    x9        R1        1
    x9        R2        1
    x9        R9        1
    x9        R12       1
    x9        R16       1
    x9        R17       1
    x9        R19       1
    x9        R20       1
    x10       OBJ       1
    x10       R0        1
    x10       R2        1
    x10       R10       1
    x10       R13       1
    x10       R15       1
    x10       R17       1
    x10       R18       1
    x10       R20       1
    x11       OBJ       1
    x11       R0        1
    x11       R1        1
    x11       R11       1
    x11       R14       1
    x11       R15       1
    x11       R16       1
    x11       R18       1
    x11       R19       1
    x12       OBJ       1
    x12       R4        1
    x12       R5        1
    x12       R7        1
    x12       R8        1
    x12       R9        1
    x12       R12       1
    x12       R22       1
    x12       R23       1
    x13       OBJ       1
    x13       R3        1
    x13       R5        1
    x13       R6        1
    x13       R8        1
    x13       R10       1
    x13       R13       1
    x13       R21       1
    x13       R23       1
    x14       OBJ       1
    x14       R3        1
    x14       R4        1
    x14       R6        1
    x14       R7        1
    x14       R11       1
    x14       R14       1
    x14       R21       1
    x14       R22       1
    x15       OBJ       1
    x15       R1        1
    x15       R2        1
    x15       R6        1
    x15       R10       1
    x15       R11       1
    x15       R15       1
    x15       R19       1
    x15       R20       1
    x16       OBJ       1
    x16       R0        1
    x16       R2        1
    x16       R7        1
    x16       R9        1
    x16       R11       1
    x16       R16       1
    x16       R18       1
    x16       R20       1
    x17       OBJ       1
    x17       R0        1
    x17       R1        1
    x17       R8        1
    x17       R9        1
    x17       R10       1
    x17       R17       1
    x17       R18       1
    x17       R19       1
    x18       OBJ       1
    x18       R1        1
    x18       R2        1
    x18       R3        1
    x18       R10       1
    x18       R11       1
    x18       R16       1
    x18       R17       1
    x18       R18       1
    x19       OBJ       1
    x19       R0        1
    x19       R2        1
    x19       R4        1
    x19       R9        1
    x19       R11       1
    x19       R15       1
    x19       R17       1
    x19       R19       1
    x20       OBJ       1
    x20       R0        1
    x20       R1        1
    x20       R5        1
    x20       R9        1
    x20       R10       1
    x20       R15       1
    x20       R16       1
    x20       R20       1
    x21       OBJ       1
    x21       R0        1
    x21       R4        1
    x21       R5        1
    x21       R7        1
    x21       R8        1
    x21       R13       1
    x21       R14       1
    x21       R21       1
    x22       OBJ       1
    x22       R1        1
    x22       R3        1
    x22       R5        1
    x22       R6        1
    x22       R8        1
    x22       R12       1
    x22       R14       1
    x22       R22       1
    x23       OBJ       1
    x23       R2        1
    x23       R3        1
    x23       R4        1
    x23       R6        1
    x23       R7        1
    x23       R12       1
    x23       R13       1
    x23       R23       1
RHS
    RHS1      R0        1
    RHS1      R1        1
    RHS1      R2        1
    RHS1      R3        1
    RHS1      R4        1
    RHS1      R5        1
    RHS1      R6        1
    RHS1      R7        1
    RHS1      R8        1
    RHS1      R9        1
    RHS1      R10       1
    RHS1      R11       1
    RHS1      R12       1
    RHS1      R13       1
    RHS1      R14       1
    RHS1      R15       1
    RHS1      R16       1
    RHS1      R17       1
    RHS1      R18       1
    RHS1      R19       1
    RHS1      R20       1
    RHS1      R21       1
    RHS1      R22       1
    RHS1      R23       1
BOUNDS
 UP BND1      x0        1
 UP BND1      x1        1
 UP BND1      x2        1
 UP BND1      x3        1
 UP BND1      x4        1
 UP BND1      x5        1
 UP BND1      x6        1
 UP BND1      x7        1
 UP BND1      x8        1
 UP BND1      x9        1
 UP BND1      x10       1
 UP BND1      x11       1
 UP BND1      x12       1
 UP BND1      x13       1
 UP BND1      x14       1
 UP BND1      x15       1
 UP BND1      x16       1
 UP BND1      x17       1
 UP BND1      x18       1
 UP BND1      x19       1
 UP BND1      x20       1
 UP BND1      x21       1
 UP BND1      x22       1
 UP BND1      x23       1
ENDATA
